100 10
506 774
696 451
300 222
342 831
595 522
395 673
586 390
346 293
771 326
739 598
321 425
608 656
549 568
470 353
487 330
269 456
453 357
769 794
661 391
775 516
515 449
928 541
737 520
213 225
597 646
228 965
629 651
301 626
628 529
729 215
758 553
636 550
759 698
570 617
845 821
732 692
280 513
504 848
611 813
723 420
520 553
758 199
546 231
906 750
581 742
848 148
851 856
672 766
440 412
723 210
306 334
405 327
499 271
722 787
832 716
208 741
712 353
593 440
377 923
548 390
816 415
978 470
220 75
692 733
679 796
625 753
560 245
578 511
683 287
855 590
500 687
380 105
372 398
561 615
696 246
700 778
614 239
528 590
590 457
360 454
748 678
281 973
536 422
574 181
328 195
768 358
783 820
404 497
437 283
854 366
409 716
678 397
585 824
377 685
250 370
408 378
483 547
630 753
513 558
567 725
